12      4       
12      12      15      4       
0       0       0       0       0       3       2       3       4       
6       7       4       8       0       2       5       7       
10      8       8       0       0       2       7       9       
3       0       0       1       0       3       5       6       8       
8       1       0       0       0       2       10      11      
7       0       0       1       4       1       7       
8       0       4       5       0       1       10      
2       0       3       4       0       1       9       
9       6       0       6       1       1       12      
1       7       9       0       0       1       12      
10      0       1       9       0       1       12      
0       0       0       0       0       0       